NAME : zqloutput/eax-hard-simple-rescaleandround/50-78.tsp
TYPE : TSP
DIMENSION : 50
EDGE_WEIGHT_TYPE : EUC_2D
NODE_COORD_SECTION
1 119469 48383
2 941079 344981
3 833400 521070
4 483408 719691
5 545444 370905
6 670709 457989
7 948465 781664
8 780911 100566
9 940992 651828
10 407826 677160
11 433148 898666
12 832727 763793
13 326429 160942
14 74763 112619
15 552319 274941
16 71985 544304
17 792945 622437
18 923293 292588
19 328138 909059
20 992921 800890
21 607160 838792
22 433827 841098
23 502006 514779
24 623272 477578
25 964997 539910
26 349536 46256
27 877266 893430
28 264968 762684
29 406717 9206
30 484231 499304
31 628125 328393
32 962322 526108
33 218808 538843
34 627915 483402
35 647468 515827
36 654538 863451
37 708795 78574
38 711818 814703
39 438236 628001
40 522160 925456
41 201513 993350
42 216289 483226
43 700692 499117
44 972258 811110
45 554526 192642
46 121421 399051
47 67646 654610
48 268699 410564
49 679872 584821
50 730860 625428
EOF
